data/MCDM/NO_CORR/GEN_FROM_60/17_ITEMS_1000_GEN/K5017W12.KNP.mps
NAME          BLANK   
ROWS
 N  OBJROW
 L  R0000000
COLUMNS
    C0000000  OBJROW     -378.         R0000000  196.        
    C0000001  OBJROW     -65.          R0000000  567.        
    C0000002  OBJROW     -1000.        R0000000  786.        
    C0000003  OBJROW     -961.         R0000000  565.        
    C0000004  OBJROW     -389.         R0000000  529.        
    C0000005  OBJROW     -84.          R0000000  936.        
    C0000006  OBJROW     -102.         R0000000  409.        
    C0000007  OBJROW     -381.         R0000000  523.        
    C0000008  OBJROW     -910.         R0000000  119.        
    C0000009  OBJROW     -621.         R0000000  979.        
    C0000010  OBJROW     -955.         R0000000  369.        
    C0000011  OBJROW     -429.         R0000000  118.        
    C0000012  OBJROW     -227.         R0000000  845.        
    C0000013  OBJROW     -119.         R0000000  828.        
    C0000014  OBJROW     -12.          R0000000  427.        
    C0000015  OBJROW     -610.         R0000000  507.        
    C0000016  OBJROW     -776.         R0000000  568.        
RHS
    RHS       R0000000  13900.      
BOUNDS
 BV BOUND     C0000000  1.          
 BV BOUND     C0000001  1.          
 BV BOUND     C0000002  1.          
 BV BOUND     C0000003  1.          
 BV BOUND     C0000004  1.          
 BV BOUND     C0000005  1.          
 BV BOUND     C0000006  1.          
 BV BOUND     C0000007  1.          
 BV BOUND     C0000008  1.          
 BV BOUND     C0000009  1.          
 BV BOUND     C0000010  1.          
 BV BOUND     C0000011  1.          
 BV BOUND     C0000012  1.          
 BV BOUND     C0000013  1.          
 BV BOUND     C0000014  1.          
 BV BOUND     C0000015  1.          
 BV BOUND     C0000016  1.          
ENDATA
